% seed = 2661980

mint = 44;
% maxt = 175;

nActs = 42;
dur = [0,3,1,10,3,8,4,10,5,1,6,6,5,1,7,9,3,2,6,6,1,8,1,3,9,6,2,9,4,2,1,3,5,3,3,2,1,5,1,2,8,0];

nSkills = 4;
sreq = [| 0,0,0,0,
	| 2,6,4,0,
	| 6,0,4,6,
	| 3,1,3,3,
	| 0,6,7,0,
	| 7,7,3,0,
	| 2,1,5,0,
	| 4,5,1,1,
	| 0,6,2,2,
	| 1,5,0,0,
	| 3,0,6,7,
	| 3,2,1,2,
	| 3,2,4,2,
	| 5,3,3,5,
	| 0,0,6,4,
	| 4,4,2,3,
	| 3,4,6,2,
	| 4,6,4,1,
	| 0,0,6,5,
	| 0,2,4,2,
	| 0,5,0,5,
	| 3,4,3,7,
	| 0,0,6,6,
	| 0,0,2,5,
	| 0,3,5,3,
	| 4,4,0,3,
	| 5,5,3,0,
	| 4,3,4,3,
	| 6,6,2,3,
	| 3,6,0,4,
	| 6,3,2,5,
	| 3,4,2,3,
	| 0,3,0,6,
	| 5,5,2,3,
	| 1,4,3,4,
	| 0,7,6,0,
	| 2,0,4,0,
	| 0,3,3,3,
	| 2,3,4,4,
	| 5,0,5,0,
	| 5,3,2,4,
	| 0,0,0,0, |];

nResources = 45;
mastery = [| true,false,true,true,
	| true,true,true,false,
	| true,false,false,true,
	| true,false,false,false,
	| true,true,true,false,
	| true,true,true,false,
	| false,true,false,false,
	| false,false,true,false,
	| true,true,false,true,
	| true,false,false,false,
	| true,false,true,true,
	| true,true,false,true,
	| false,false,false,true,
	| true,false,true,true,
	| true,true,false,true,
	| true,false,true,false,
	| true,true,false,true,
	| true,true,false,false,
	| true,false,false,false,
	| true,false,true,true,
	| true,false,true,true,
	| true,false,false,false,
	| true,true,true,false,
	| false,true,false,true,
	| true,true,false,true,
	| false,false,true,true,
	| false,false,false,true,
	| false,false,true,true,
	| true,false,false,true,
	| true,true,false,true,
	| true,true,false,false,
	| true,false,false,false,
	| false,true,true,true,
	| false,true,true,true,
	| false,true,true,true,
	| false,true,true,true,
	| false,false,true,true,
	| false,true,false,false,
	| false,false,false,true,
	| false,true,true,true,
	| false,true,false,true,
	| false,true,true,false,
	| true,false,false,false,
	| true,true,false,false,
	| false,true,true,true, |];

nPrecs = 85;
pred = [1,1,1,2,2,2,3,3,3,4,4,4,5,5,5,6,6,6,7,7,7,8,8,8,9,9,9,10,10,10,11,11,11,12,12,13,13,13,14,15,15,15,16,16,17,17,17,18,18,18,19,19,19,20,21,21,22,23,24,24,24,25,26,26,27,27,27,28,29,30,30,31,32,33,33,34,35,36,36,37,38,38,39,40,41];
succ = [2,3,4,5,15,7,17,6,8,41,10,16,9,17,21,9,30,16,41,13,23,12,22,24,22,23,32,11,21,27,18,37,31,14,40,27,20,14,29,33,30,16,26,32,33,19,23,36,28,38,35,20,22,34,25,38,26,31,25,34,30,26,28,36,33,28,32,29,31,41,36,39,35,34,35,37,37,39,40,38,39,40,42,42,42];

nUnrels = 408;
unpred = [2,2,2,2,2,2,2,2,2,3,3,3,3,3,3,3,3,3,3,4,4,4,4,4,4,4,4,4,4,4,4,4,4,4,4,5,5,5,5,5,5,5,5,5,5,5,5,5,5,5,6,6,6,6,6,6,6,6,6,6,6,6,6,6,6,6,6,6,7,7,7,7,7,7,7,7,7,7,7,7,7,7,7,7,7,8,8,8,8,8,8,8,8,8,8,8,8,8,8,8,8,9,9,9,9,9,9,9,9,9,9,9,9,9,9,9,9,9,9,9,10,10,10,10,10,10,10,10,10,10,10,10,10,11,11,11,11,11,11,11,11,11,11,11,11,11,11,11,11,11,11,11,11,11,12,12,12,12,12,12,12,12,12,12,12,12,12,12,12,12,12,12,12,12,12,12,12,12,13,13,13,13,13,13,13,13,13,13,13,13,13,13,14,14,14,14,14,14,14,14,14,14,14,14,14,14,14,14,14,14,14,14,14,14,14,14,15,15,15,15,15,15,15,15,15,15,16,16,16,16,16,16,16,16,16,16,16,16,16,16,17,17,17,17,17,17,17,17,18,18,18,18,18,18,18,18,18,18,18,18,18,18,18,18,19,19,19,19,19,19,19,19,19,20,20,20,20,20,20,20,20,20,20,20,20,20,20,20,20,21,21,21,21,21,21,21,21,21,21,21,22,22,22,22,22,22,22,22,22,22,22,22,23,23,23,23,23,23,23,23,23,23,23,23,23,23,23,23,24,24,24,24,25,25,25,25,25,25,25,25,25,26,26,26,26,26,26,26,26,26,27,27,27,28,28,28,28,28,28,28,28,28,28,29,29,29,29,29,29,29,29,29,29,30,30,30,30,30,30,30,31,31,31,31,31,31,31,31,31,32,32,32,32,33,33,34,34,34,35,35,36,36,36,37,38,39,39,40];
unsucc = [3,4,6,8,10,11,12,18,24,4,5,7,10,11,13,15,18,21,27,5,6,7,8,9,12,13,14,15,17,19,20,22,23,24,30,6,7,8,10,11,12,13,14,15,16,18,24,27,30,41,7,8,10,11,12,13,14,15,17,18,19,20,21,24,25,27,33,34,8,9,10,11,12,15,16,17,18,19,21,22,24,25,26,30,36,9,10,11,13,15,16,17,18,19,20,21,23,27,32,33,35,10,11,12,13,14,15,16,17,18,19,20,21,24,25,27,30,33,34,41,12,13,14,15,16,17,19,20,22,23,24,30,41,12,13,14,15,16,17,19,20,21,22,23,24,25,26,27,30,32,33,34,35,41,13,15,16,17,18,19,20,21,22,23,24,25,26,27,28,30,32,33,34,35,36,37,38,41,15,16,17,18,19,21,22,23,24,25,26,30,36,41,15,16,17,18,19,20,21,22,23,24,25,26,27,28,30,32,33,34,35,36,37,38,40,41,17,18,19,20,21,22,23,24,25,27,17,18,19,20,21,22,23,24,25,27,30,33,34,41,18,21,24,25,27,30,32,41,19,20,21,22,23,24,25,26,27,30,32,33,34,35,37,41,21,23,24,25,27,30,32,33,41,21,22,23,24,25,26,27,28,29,30,31,32,33,35,36,41,22,23,24,27,30,32,33,34,35,37,41,23,24,25,27,30,32,33,34,35,37,38,41,24,25,26,27,28,29,30,32,33,34,35,36,37,38,40,41,27,32,33,35,27,30,32,33,34,35,37,38,41,27,30,32,33,34,35,37,38,41,30,36,41,30,32,33,34,35,36,37,38,40,41,30,32,33,34,35,36,37,38,40,41,31,32,33,34,35,37,38,32,33,34,35,36,37,38,40,41,33,34,36,41,36,41,35,36,41,36,41,37,38,41,41,41,40,41,41];

USEFUL_RES = [{},
	{1,2,3,4,5,6,7,8,9,10,11,12,14,15,16,17,18,19,20,21,22,23,24,25,26,28,29,30,31,32,33,34,35,36,37,38,40,41,42,43,44,45},
	{1,2,3,4,5,6,8,9,10,11,12,13,14,15,16,17,18,19,20,21,22,23,24,25,26,27,28,29,30,31,32,33,34,35,36,37,39,40,41,42,43,44,45},
	{1,2,3,4,5,6,7,8,9,10,11,12,13,14,15,16,17,18,19,20,21,22,23,24,25,26,27,28,29,30,31,32,33,34,35,36,37,38,39,40,41,42,43,44,45},
	{1,2,5,6,7,8,9,11,12,14,15,16,17,18,20,21,23,24,25,26,28,30,31,33,34,35,36,37,38,40,41,42,44,45},
	{1,2,3,4,5,6,7,8,9,10,11,12,14,15,16,17,18,19,20,21,22,23,24,25,26,28,29,30,31,32,33,34,35,36,37,38,40,41,42,43,44,45},
	{1,2,3,4,5,6,7,8,9,10,11,12,14,15,16,17,18,19,20,21,22,23,24,25,26,28,29,30,31,32,33,34,35,36,37,38,40,41,42,43,44,45},
	{1,2,3,4,5,6,7,8,9,10,11,12,13,14,15,16,17,18,19,20,21,22,23,24,25,26,27,28,29,30,31,32,33,34,35,36,37,38,39,40,41,42,43,44,45},
	{1,2,3,5,6,7,8,9,11,12,13,14,15,16,17,18,20,21,23,24,25,26,27,28,29,30,31,33,34,35,36,37,38,39,40,41,42,44,45},
	{1,2,3,4,5,6,7,9,10,11,12,14,15,16,17,18,19,20,21,22,23,24,25,29,30,31,32,33,34,35,36,38,40,41,42,43,44,45},
	{1,2,3,4,5,6,8,9,10,11,12,13,14,15,16,17,18,19,20,21,22,23,24,25,26,27,28,29,30,31,32,33,34,35,36,37,39,40,41,42,43,44,45},
	{1,2,3,4,5,6,7,8,9,10,11,12,13,14,15,16,17,18,19,20,21,22,23,24,25,26,27,28,29,30,31,32,33,34,35,36,37,38,39,40,41,42,43,44,45},
	{1,2,3,4,5,6,7,8,9,10,11,12,13,14,15,16,17,18,19,20,21,22,23,24,25,26,27,28,29,30,31,32,33,34,35,36,37,38,39,40,41,42,43,44,45},
	{1,2,3,4,5,6,7,8,9,10,11,12,13,14,15,16,17,18,19,20,21,22,23,24,25,26,27,28,29,30,31,32,33,34,35,36,37,38,39,40,41,42,43,44,45},
	{1,2,3,5,6,8,9,11,12,13,14,15,16,17,20,21,23,24,25,26,27,28,29,30,33,34,35,36,37,39,40,41,42,45},
	{1,2,3,4,5,6,7,8,9,10,11,12,13,14,15,16,17,18,19,20,21,22,23,24,25,26,27,28,29,30,31,32,33,34,35,36,37,38,39,40,41,42,43,44,45},
	{1,2,3,4,5,6,7,8,9,10,11,12,13,14,15,16,17,18,19,20,21,22,23,24,25,26,27,28,29,30,31,32,33,34,35,36,37,38,39,40,41,42,43,44,45},
	{1,2,3,4,5,6,7,8,9,10,11,12,13,14,15,16,17,18,19,20,21,22,23,24,25,26,27,28,29,30,31,32,33,34,35,36,37,38,39,40,41,42,43,44,45},
	{1,2,3,5,6,8,9,11,12,13,14,15,16,17,20,21,23,24,25,26,27,28,29,30,33,34,35,36,37,39,40,41,42,45},
	{1,2,3,5,6,7,8,9,11,12,13,14,15,16,17,18,20,21,23,24,25,26,27,28,29,30,31,33,34,35,36,37,38,39,40,41,42,44,45},
	{1,2,3,5,6,7,9,11,12,13,14,15,17,18,20,21,23,24,25,26,27,28,29,30,31,33,34,35,36,37,38,39,40,41,42,44,45},
	{1,2,3,4,5,6,7,8,9,10,11,12,13,14,15,16,17,18,19,20,21,22,23,24,25,26,27,28,29,30,31,32,33,34,35,36,37,38,39,40,41,42,43,44,45},
	{1,2,3,5,6,8,9,11,12,13,14,15,16,17,20,21,23,24,25,26,27,28,29,30,33,34,35,36,37,39,40,41,42,45},
	{1,2,3,5,6,8,9,11,12,13,14,15,16,17,20,21,23,24,25,26,27,28,29,30,33,34,35,36,37,39,40,41,42,45},
	{1,2,3,5,6,7,8,9,11,12,13,14,15,16,17,18,20,21,23,24,25,26,27,28,29,30,31,33,34,35,36,37,38,39,40,41,42,44,45},
	{1,2,3,4,5,6,7,9,10,11,12,13,14,15,16,17,18,19,20,21,22,23,24,25,26,27,28,29,30,31,32,33,34,35,36,37,38,39,40,41,42,43,44,45},
	{1,2,3,4,5,6,7,8,9,10,11,12,14,15,16,17,18,19,20,21,22,23,24,25,26,28,29,30,31,32,33,34,35,36,37,38,40,41,42,43,44,45},
	{1,2,3,4,5,6,7,8,9,10,11,12,13,14,15,16,17,18,19,20,21,22,23,24,25,26,27,28,29,30,31,32,33,34,35,36,37,38,39,40,41,42,43,44,45},
	{1,2,3,4,5,6,7,8,9,10,11,12,13,14,15,16,17,18,19,20,21,22,23,24,25,26,27,28,29,30,31,32,33,34,35,36,37,38,39,40,41,42,43,44,45},
	{1,2,3,4,5,6,7,9,10,11,12,13,14,15,16,17,18,19,20,21,22,23,24,25,26,27,28,29,30,31,32,33,34,35,36,37,38,39,40,41,42,43,44,45},
	{1,2,3,4,5,6,7,8,9,10,11,12,13,14,15,16,17,18,19,20,21,22,23,24,25,26,27,28,29,30,31,32,33,34,35,36,37,38,39,40,41,42,43,44,45},
	{1,2,3,4,5,6,7,8,9,10,11,12,13,14,15,16,17,18,19,20,21,22,23,24,25,26,27,28,29,30,31,32,33,34,35,36,37,38,39,40,41,42,43,44,45},
	{1,2,3,5,6,7,9,11,12,13,14,15,17,18,20,21,23,24,25,26,27,28,29,30,31,33,34,35,36,37,38,39,40,41,42,44,45},
	{1,2,3,4,5,6,7,8,9,10,11,12,13,14,15,16,17,18,19,20,21,22,23,24,25,26,27,28,29,30,31,32,33,34,35,36,37,38,39,40,41,42,43,44,45},
	{1,2,3,4,5,6,7,8,9,10,11,12,13,14,15,16,17,18,19,20,21,22,23,24,25,26,27,28,29,30,31,32,33,34,35,36,37,38,39,40,41,42,43,44,45},
	{1,2,5,6,7,8,9,11,12,14,15,16,17,18,20,21,23,24,25,26,28,30,31,33,34,35,36,37,38,40,41,42,44,45},
	{1,2,3,4,5,6,8,9,10,11,12,14,15,16,17,18,19,20,21,22,23,25,26,28,29,30,31,32,33,34,35,36,37,40,42,43,44,45},
	{1,2,3,5,6,7,8,9,11,12,13,14,15,16,17,18,20,21,23,24,25,26,27,28,29,30,31,33,34,35,36,37,38,39,40,41,42,44,45},
	{1,2,3,4,5,6,7,8,9,10,11,12,13,14,15,16,17,18,19,20,21,22,23,24,25,26,27,28,29,30,31,32,33,34,35,36,37,38,39,40,41,42,43,44,45},
	{1,2,3,4,5,6,8,9,10,11,12,14,15,16,17,18,19,20,21,22,23,25,26,28,29,30,31,32,33,34,35,36,37,40,42,43,44,45},
	{1,2,3,4,5,6,7,8,9,10,11,12,13,14,15,16,17,18,19,20,21,22,23,24,25,26,27,28,29,30,31,32,33,34,35,36,37,38,39,40,41,42,43,44,45},
	{}];

POTENTIAL_ACT = [{2,3,4,5,6,7,8,9,10,11,12,13,14,15,16,17,18,19,20,21,22,23,24,25,26,27,28,29,30,31,32,33,34,35,36,37,38,39,40,41},
	{2,3,4,5,6,7,8,9,10,11,12,13,14,15,16,17,18,19,20,21,22,23,24,25,26,27,28,29,30,31,32,33,34,35,36,37,38,39,40,41},
	{2,3,4,6,7,8,9,10,11,12,13,14,15,16,17,18,19,20,21,22,23,24,25,26,27,28,29,30,31,32,33,34,35,37,38,39,40,41},
	{2,3,4,6,7,8,10,11,12,13,14,16,17,18,22,26,27,28,29,30,31,32,34,35,37,39,40,41},
	{2,3,4,5,6,7,8,9,10,11,12,13,14,15,16,17,18,19,20,21,22,23,24,25,26,27,28,29,30,31,32,33,34,35,36,37,38,39,40,41},
	{2,3,4,5,6,7,8,9,10,11,12,13,14,15,16,17,18,19,20,21,22,23,24,25,26,27,28,29,30,31,32,33,34,35,36,37,38,39,40,41},
	{2,4,5,6,7,8,9,10,12,13,14,16,17,18,20,21,22,25,26,27,28,29,30,31,32,33,34,35,36,38,39,41},
	{2,3,4,5,6,7,8,9,11,12,13,14,15,16,17,18,19,20,22,23,24,25,27,28,29,31,32,34,35,36,37,38,39,40,41},
	{2,3,4,5,6,7,8,9,10,11,12,13,14,15,16,17,18,19,20,21,22,23,24,25,26,27,28,29,30,31,32,33,34,35,36,37,38,39,40,41},
	{2,3,4,6,7,8,10,11,12,13,14,16,17,18,22,26,27,28,29,30,31,32,34,35,37,39,40,41},
	{2,3,4,5,6,7,8,9,10,11,12,13,14,15,16,17,18,19,20,21,22,23,24,25,26,27,28,29,30,31,32,33,34,35,36,37,38,39,40,41},
	{2,3,4,5,6,7,8,9,10,11,12,13,14,15,16,17,18,19,20,21,22,23,24,25,26,27,28,29,30,31,32,33,34,35,36,37,38,39,40,41},
	{3,4,8,9,11,12,13,14,15,16,17,18,19,20,21,22,23,24,25,26,28,29,30,31,32,33,34,35,38,39,41},
	{2,3,4,5,6,7,8,9,10,11,12,13,14,15,16,17,18,19,20,21,22,23,24,25,26,27,28,29,30,31,32,33,34,35,36,37,38,39,40,41},
	{2,3,4,5,6,7,8,9,10,11,12,13,14,15,16,17,18,19,20,21,22,23,24,25,26,27,28,29,30,31,32,33,34,35,36,37,38,39,40,41},
	{2,3,4,5,6,7,8,9,10,11,12,13,14,15,16,17,18,19,20,22,23,24,25,26,27,28,29,30,31,32,34,35,36,37,38,39,40,41},
	{2,3,4,5,6,7,8,9,10,11,12,13,14,15,16,17,18,19,20,21,22,23,24,25,26,27,28,29,30,31,32,33,34,35,36,37,38,39,40,41},
	{2,3,4,5,6,7,8,9,10,11,12,13,14,16,17,18,20,21,22,25,26,27,28,29,30,31,32,33,34,35,36,37,38,39,40,41},
	{2,3,4,6,7,8,10,11,12,13,14,16,17,18,22,26,27,28,29,30,31,32,34,35,37,39,40,41},
	{2,3,4,5,6,7,8,9,10,11,12,13,14,15,16,17,18,19,20,21,22,23,24,25,26,27,28,29,30,31,32,33,34,35,36,37,38,39,40,41},
	{2,3,4,5,6,7,8,9,10,11,12,13,14,15,16,17,18,19,20,21,22,23,24,25,26,27,28,29,30,31,32,33,34,35,36,37,38,39,40,41},
	{2,3,4,6,7,8,10,11,12,13,14,16,17,18,22,26,27,28,29,30,31,32,34,35,37,39,40,41},
	{2,3,4,5,6,7,8,9,10,11,12,13,14,15,16,17,18,19,20,21,22,23,24,25,26,27,28,29,30,31,32,33,34,35,36,37,38,39,40,41},
	{2,3,4,5,6,7,8,9,10,11,12,13,14,15,16,17,18,19,20,21,22,23,24,25,26,27,28,29,30,31,32,33,34,35,36,38,39,41},
	{2,3,4,5,6,7,8,9,10,11,12,13,14,15,16,17,18,19,20,21,22,23,24,25,26,27,28,29,30,31,32,33,34,35,36,37,38,39,40,41},
	{2,3,4,5,6,7,8,9,11,12,13,14,15,16,17,18,19,20,21,22,23,24,25,26,27,28,29,30,31,32,33,34,35,36,37,38,39,40,41},
	{3,4,8,9,11,12,13,14,15,16,17,18,19,20,21,22,23,24,25,26,28,29,30,31,32,33,34,35,38,39,41},
	{2,3,4,5,6,7,8,9,11,12,13,14,15,16,17,18,19,20,21,22,23,24,25,26,27,28,29,30,31,32,33,34,35,36,37,38,39,40,41},
	{2,3,4,6,7,8,9,10,11,12,13,14,15,16,17,18,19,20,21,22,23,24,25,26,27,28,29,30,31,32,33,34,35,37,38,39,40,41},
	{2,3,4,5,6,7,8,9,10,11,12,13,14,15,16,17,18,19,20,21,22,23,24,25,26,27,28,29,30,31,32,33,34,35,36,37,38,39,40,41},
	{2,3,4,5,6,7,8,9,10,11,12,13,14,16,17,18,20,21,22,25,26,27,28,29,30,31,32,33,34,35,36,37,38,39,40,41},
	{2,3,4,6,7,8,10,11,12,13,14,16,17,18,22,26,27,28,29,30,31,32,34,35,37,39,40,41},
	{2,3,4,5,6,7,8,9,10,11,12,13,14,15,16,17,18,19,20,21,22,23,24,25,26,27,28,29,30,31,32,33,34,35,36,37,38,39,40,41},
	{2,3,4,5,6,7,8,9,10,11,12,13,14,15,16,17,18,19,20,21,22,23,24,25,26,27,28,29,30,31,32,33,34,35,36,37,38,39,40,41},
	{2,3,4,5,6,7,8,9,10,11,12,13,14,15,16,17,18,19,20,21,22,23,24,25,26,27,28,29,30,31,32,33,34,35,36,37,38,39,40,41},
	{2,3,4,5,6,7,8,9,10,11,12,13,14,15,16,17,18,19,20,21,22,23,24,25,26,27,28,29,30,31,32,33,34,35,36,37,38,39,40,41},
	{2,3,4,5,6,7,8,9,11,12,13,14,15,16,17,18,19,20,21,22,23,24,25,26,27,28,29,30,31,32,33,34,35,36,37,38,39,40,41},
	{2,4,5,6,7,8,9,10,12,13,14,16,17,18,20,21,22,25,26,27,28,29,30,31,32,33,34,35,36,38,39,41},
	{3,4,8,9,11,12,13,14,15,16,17,18,19,20,21,22,23,24,25,26,28,29,30,31,32,33,34,35,38,39,41},
	{2,3,4,5,6,7,8,9,10,11,12,13,14,15,16,17,18,19,20,21,22,23,24,25,26,27,28,29,30,31,32,33,34,35,36,37,38,39,40,41},
	{2,3,4,5,6,7,8,9,10,11,12,13,14,15,16,17,18,19,20,21,22,23,24,25,26,27,28,29,30,31,32,33,34,35,36,38,39,41},
	{2,3,4,5,6,7,8,9,10,11,12,13,14,15,16,17,18,19,20,21,22,23,24,25,26,27,28,29,30,31,32,33,34,35,36,37,38,39,40,41},
	{2,3,4,6,7,8,10,11,12,13,14,16,17,18,22,26,27,28,29,30,31,32,34,35,37,39,40,41},
	{2,3,4,5,6,7,8,9,10,11,12,13,14,16,17,18,20,21,22,25,26,27,28,29,30,31,32,33,34,35,36,37,38,39,40,41},
	{2,3,4,5,6,7,8,9,10,11,12,13,14,15,16,17,18,19,20,21,22,23,24,25,26,27,28,29,30,31,32,33,34,35,36,37,38,39,40,41}];
